************************************************************************
file with basedata            : md383_.bas
initial value random generator: 1814852767
************************************************************************
projects                      :  1
jobs (incl. supersource/sink ):  22
horizon                       :  167
RESOURCES
  - renewable                 :  2   R
  - nonrenewable              :  2   N
  - doubly constrained        :  0   D
************************************************************************
PROJECT INFORMATION:
pronr.  #jobs rel.date duedate tardcost  MPM-Time
    1     20      0       36       14       36
************************************************************************
PRECEDENCE RELATIONS:
jobnr.    #modes  #successors   successors
   1        1          3           2   3   4
   2        3          2           5  10
   3        3          3           7   9  12
   4        3          2           6  19
   5        3          2           9  12
   6        3          3           8  12  16
   7        3          2          10  15
   8        3          2          11  14
   9        3          3          11  13  16
  10        3          3          19  20  21
  11        3          1          15
  12        3          2          18  20
  13        3          2          14  19
  14        3          2          15  17
  15        3          1          21
  16        3          1          18
  17        3          2          18  20
  18        3          1          21
  19        3          1          22
  20        3          1          22
  21        3          1          22
  22        1          0        
************************************************************************
REQUESTS/DURATIONS:
jobnr. mode duration  R 1  R 2  N 1  N 2
------------------------------------------------------------------------
  1      1     0       0    0    0    0
  2      1     5       6    1    9    7
         2     8       6    1    5    7
         3     9       4    1    1    4
  3      1     1       7    8    2    9
         2     5       5    3    2    9
         3     7       3    2    2    9
  4      1     6       8    9    9    7
         2     6       8    9    8    8
         3     8       6    3    8    6
  5      1     4       8   10    9    1
         2     8       8    9    8    1
         3    10       6    7    8    1
  6      1     1       9    9    7    7
         2     6       9    8    7    5
         3    10       8    8    4    4
  7      1     2       8    3   10    5
         2     6       6    3    5    4
         3     9       5    3    3    3
  8      1     1       7    6    2    6
         2     4       4    6    2    5
         3     8       3    6    1    5
  9      1     5       6   10    8    5
         2     5       7    8    8    5
         3     6       6    6    8    2
 10      1     1       7    7    9    7
         2     5       7    5    5    6
         3     7       6    4    4    5
 11      1     2       7    4    5    2
         2     7       5    4    5    2
         3     8       3    3    5    1
 12      1     1       2    6    3    8
         2     3       2    6    2    6
         3     8       2    5    2    5
 13      1     7       3    7    4    8
         2     8       2    7    4    6
         3     9       1    7    2    4
 14      1     4       9    6    6    2
         2     5       6    6    5    2
         3     8       4    3    3    1
 15      1     5       4    3    2    7
         2     6       3    3    2    5
         3     9       3    2    2    5
 16      1     1       3    3    5    7
         2     1       2    4    5    7
         3     6       1    2    3    7
 17      1     3      10    6    2    6
         2     4       8    5    2    5
         3     6       7    3    2    4
 18      1     2       5    6    6    2
         2     3       5    5    6    2
         3    10       5    4    6    1
 19      1     5       4    6    5   10
         2     6       3    5    3    9
         3     9       2    3    2    9
 20      1     8       9    3    1    7
         2     9       7    3    1    5
         3    10       4    3    1    5
 21      1     4       7    2    3    3
         2     6       7    2    2    3
         3    10       3    1    2    3
 22      1     0       0    0    0    0
************************************************************************
RESOURCEAVAILABILITIES:
  R 1  R 2  N 1  N 2
   19   22  107  117
************************************************************************
MAXIMAL LAGS:
from  to  type  delay
    1   22   ES      0
    1    2   ES      0
    2   22   ES      0
    1    3   ES      0
    3   22   ES      0
    1    4   ES      0
    4   22   ES      0
    1    5   ES      0
    5   22   ES      0
    1    6   ES      0
    6   22   ES      0
    1    7   ES      0
    7   22   ES      0
    1    8   ES      0
    8   22   ES      0
    1    9   ES      0
    9   22   ES      0
    1   10   ES      0
   10   22   ES      0
    1   11   ES      0
   11   22   ES      0
    1   12   ES      0
   12   22   ES      0
    1   13   ES      0
   13   22   ES      0
    1   14   ES      0
   14   22   ES      0
    1   15   ES      0
   15   22   ES      0
    1   16   ES      0
   16   22   ES      0
    1   17   ES      0
   17   22   ES      0
    1   18   ES      0
   18   22   ES      0
    1   19   ES      0
   19   22   ES      0
    1   20   ES      0
   20   22   ES      0
    1   21   ES      0
   21   22   ES      0
    1   22   ES      0
    2    5   SS      3
    2    5   SE      9
    2    5   ES     -3
    2    5   EE     12
    2   10   SS      6
    2   10   SE      2
    2   10   ES     -5
    2   10   EE     12
    3    7   SS    -10
    3    7   SE     -9
    3    7   ES    -10
    3    7   EE     -3
    3    9   SS      7
    3    9   SE      1
    3    9   ES     -5
    3    9   EE     -6
    3   12   SS      1
    3   12   SE    -12
    3   12   ES      6
    3   12   EE      5
    4    6   SS      7
    4    6   SE     10
    4    6   ES     -9
    4    6   EE    -11
    4   19   SS     -2
    4   19   SE      9
    4   19   ES    -12
    4   19   EE     -3
    5    9   SS      9
    5    9   SE     12
    5    9   ES     -2
    5    9   EE      7
    5   12   SS     12
    5   12   SE      0
    5   12   ES      8
    5   12   EE     -9
    6    8   SS      7
    6    8   SE      8
    6    8   ES      2
    6    8   EE      8
    6   12   SS     -4
    6   12   SE    -11
    6   12   ES    -12
    6   12   EE     10
    6   16   SS     -1
    6   16   SE      7
    6   16   ES      3
    6   16   EE     -1
    7   10   SS     12
    7   10   SE      4
    7   10   ES     -6
    7   10   EE     -4
    7   15   SS      9
    7   15   SE     -3
    7   15   ES     -1
    7   15   EE      7
    8   11   SS     11
    8   11   SE     -4
    8   11   ES     -7
    8   11   EE    -10
    8   14   SS    -12
    8   14   SE     10
    8   14   ES     -3
    8   14   EE     -7
    9   11   SS    -12
    9   11   SE      9
    9   11   ES      4
    9   11   EE     -3
    9   13   SS    -10
    9   13   SE      4
    9   13   ES     -7
    9   13   EE      5
    9   16   SS      8
    9   16   SE      1
    9   16   ES     -2
    9   16   EE     -4
   10   19   SS      6
   10   19   SE    -11
   10   19   ES      2
   10   19   EE      5
   10   20   SS      2
   10   20   SE     -7
   10   20   ES     -2
   10   20   EE     -2
   10   21   SS    -11
   10   21   SE     10
   10   21   ES     -1
   10   21   EE     -3
   11   15   SS     -9
   11   15   SE     -2
   11   15   ES     -9
   11   15   EE      7
   12   18   SS    -11
   12   18   SE      6
   12   18   ES     -6
   12   18   EE      2
   12   20   SS     -1
   12   20   SE      2
   12   20   ES     12
   12   20   EE      2
   13   14   SS    -12
   13   14   SE      2
   13   14   ES      6
   13   14   EE      0
   13   19   SS      9
   13   19   SE    -12
   13   19   ES      9
   13   19   EE      0
   14   15   SS    -10
   14   15   SE      9
   14   15   ES      1
   14   15   EE      6
   14   17   SS     -4
   14   17   SE     -9
   14   17   ES     -6
   14   17   EE     12
   15   21   SS     -1
   15   21   SE     -9
   15   21   ES     -7
   15   21   EE      5
   16   18   SS     -4
   16   18   SE      5
   16   18   ES     -6
   16   18   EE      0
   17   18   SS      7
   17   18   SE     -2
   17   18   ES     12
   17   18   EE     -1
   17   20   SS      6
   17   20   SE     -1
   17   20   ES      5
   17   20   EE     -7
   18   21   SS      3
   18   21   SE      2
   18   21   ES     11
   18   21   EE    -11
************************************************************************
